data/CVRPLIB/Vrp-Set-XML100/instances/XML100_2213_17.vrp
NAME : XML100_2213_17
COMMENT : Generated by Queiroga, Sadykov, Uchoa, and Vidal (2021)
TYPE : CVRP
DIMENSION : 101
EDGE_WEIGHT_TYPE : EUC_2D
CAPACITY : 11
NODE_COORD_SECTION
1    500  500 
2    451  207 
3    447  445 
4    59   396 
5    80   469 
6    37   320 
7    236  284 
8    258  443 
9    392  526 
10   416  301 
11   401  663 
12   19   215 
13   273  571 
14   269  139 
15   509  451 
16   490  576 
17   516  574 
18   425  532 
19   4    401 
20   381  450 
21   416  579 
22   384  380 
23   0    576 
24   397  250 
25   357  583 
26   291  235 
27   388  336 
28   341  395 
29   410  518 
30   38   338 
31   419  476 
32   414  635 
33   66   413 
34   353  301 
35   371  310 
36   529  433 
37   324  710 
38   399  564 
39   467  14  
40   559  614 
41   44   362 
42   37   328 
43   8    366 
44   20   342 
45   503  604 
46   502  581 
47   399  548 
48   33   416 
49   233  339 
50   4    349 
51   390  420 
52   21   378 
53   329  488 
54   8    404 
55   441  539 
56   39   418 
57   26   391 
58   486  202 
59   359  414 
60   376  312 
61   409  180 
62   37   347 
63   27   503 
64   272  572 
65   4    461 
66   550  500 
67   316  532 
68   57   244 
69   209  187 
70   483  635 
71   375  484 
72   625  627 
73   451  556 
74   295  154 
75   501  342 
76   287  549 
77   611  555 
78   499  502 
79   41   383 
80   525  447 
81   544  539 
82   377  318 
83   370  514 
84   441  513 
85   92   461 
86   124  408 
87   489  320 
88   524  308 
89   402  502 
90   501  560 
91   329  325 
92   308  18  
93   378  249 
94   512  502 
95   354  627 
96   25   447 
97   409  370 
98   211  420 
99   123  362 
100  461  531 
101  32   354 
DEMAND_SECTION
1    0   
2    1   
3    1   
4    1   
5    1   
6    1   
7    1   
8    1   
9    1   
10   1   
11   1   
12   1   
13   1   
14   1   
15   1   
16   1   
17   1   
18   1   
19   1   
20   1   
21   1   
22   1   
23   1   
24   1   
25   1   
26   1   
27   1   
28   1   
29   1   
30   1   
31   1   
32   1   
33   1   
34   1   
35   1   
36   1   
37   1   
38   1   
39   1   
40   1   
41   1   
42   1   
43   1   
44   1   
45   1   
46   1   
47   1   
48   1   
49   1   
50   1   
51   1   
52   1   
53   1   
54   1   
55   1   
56   1   
57   1   
58   1   
59   1   
60   1   
61   1   
62   1   
63   1   
64   1   
65   1   
66   1   
67   1   
68   1   
69   1   
70   1   
71   1   
72   1   
73   1   
74   1   
75   1   
76   1   
77   1   
78   1   
79   1   
80   1   
81   1   
82   1   
83   1   
84   1   
85   1   
86   1   
87   1   
88   1   
89   1   
90   1   
91   1   
92   1   
93   1   
94   1   
95   1   
96   1   
97   1   
98   1   
99   1   
100  1   
101  1   
DEPOT_SECTION
1
-1
EOF
