data/CVRPLIB/Vrp-Set-XML100/solutions/XML100_2213_17.sol
Route #1: 77
Route #2: 87 57 1 60 38 91 73 13 68 25 90
Route #3: 93 65 80 76 71 39 44 15 45 16 89
Route #4: 22 62 64 95 53 18 47 55 4 84 52
Route #5: 74 86 9 23 92 33 34 59 81 26 96
Route #6: 40 100 43 49 42 51 56 78 3 32 85
Route #7: 99 54 72 20 37 46 8 88 28 17 83
Route #8: 69 31 10 36 94 24 12 63 75 66 82
Route #9: 48 6 67 11 5 41 29 61 98 97 7
Route #10: 30 70 19 58 27 21 50 2 14 35 79
Cost 7766
